qe/outputs/qe/qe_queries_cbrdelay_obs/T=5,eliminate=[I_0,I_1,I_2,I_3,I_4,L_1,L_2,L_3,L_4,C].smt2
; benchmark generated from python API
(set-info :status unknown)
(declare-fun S_0 () Real)
(declare-fun S_4 () Real)
(declare-fun B () Real)
(declare-fun S_2 () Real)
(declare-fun S_3 () Real)
(declare-fun S_1 () Real)
(declare-fun L_0 () Real)
(declare-fun A_0 () Real)
(declare-fun A_1 () Real)
(declare-fun A_2 () Real)
(declare-fun A_3 () Real)
(declare-fun A_4 () Real)
(assert
 (let ((?x1064 (* (- 1.0) S_0)))
 (let ((?x1224 (* (- 2.0) S_3)))
 (let ((?x2821 (* 3.0 S_4)))
 (let ((?x472 (* (- 1.0) S_1)))
 (let ((?x450 (* (- 1.0) S_3)))
 (let ((?x2820 (* 2.0 S_4)))
 (let ((?x2823 (* (- 2.0) B)))
 (let (($x34 (>= L_0 0.0)))
 (let (($x8355 (not (<= B 10.0))))
 (let (($x6899 (<= (+ (* (- (/ 1.0 2.0)) S_4) (* (- 1.0) A_0) (* (/ 3.0 2.0) S_1) L_0) 0.0)))
 (let (($x8541 (<= (+ (* (- 2.0) S_4) (* (- 1.0) A_0) (* 3.0 S_2) L_0) 0.0)))
 (let (($x108 (>= S_1 S_0)))
 (let (($x111 (>= S_2 S_1)))
 (let (($x114 (>= S_3 S_2)))
 (let (($x117 (>= S_4 S_3)))
 (let (($x119 (>= A_1 A_0)))
 (let (($x120 (>= A_2 A_1)))
 (let (($x121 (>= A_3 A_2)))
 (let (($x122 (>= A_4 A_3)))
 (and $x122 $x121 $x120 $x119 $x117 $x114 $x111 $x108 $x8541 (<= (+ (* (- 3.0) S_4) (* 4.0 S_2) ?x1064) 0.0) (<= (+ (* (- 1.0) S_4) S_2) (- 5.0)) $x6899 (<= (+ (* (- 2.0) S_4) (* 3.0 S_2) ?x472) 0.0) (<= (+ (* (- (/ 1.0 2.0)) S_4) (* (/ 1.0 2.0) S_1)) (- 5.0)) (<= (+ (* (- 1.0) S_4) (* 2.0 S_1) ?x1064) 0.0) (not (<= 0.0 (+ (* (- (/ 3.0 2.0)) B) S_4 (* (- 1.0) A_0) L_0))) (not (<= 0.0 (+ (* (- (/ 3.0 2.0)) B) S_4 ?x472))) $x8355 $x34 (<= (+ L_0 (* (- 1.0) A_0) S_0) 0.0) (not (>= (+ S_4 (* (- 1.0) A_1) L_0) 0.0)) (<= (+ (* (- (/ 1.0 2.0)) S_3) (* (/ 1.0 2.0) S_0)) (- 5.0)) (<= (+ S_4 ?x1224 S_0) 0.0) (<= (+ ?x450 S_1) (- 5.0)) (<= (+ (* (- 1.0) A_0) ?x450 (* 2.0 S_1) L_0) 0.0) (<= (+ S_4 (* (- 3.0) S_3) (* 2.0 S_1)) 0.0) (not (>= (+ (* (- 1.0) B) S_4 (* (- 1.0) S_2)) 0.0)) (not (>= (+ (* (- 1.0) B) S_4 ?x450) (- 5.0))) (not (>= (+ ?x2823 ?x2820 (* (- 1.0) A_0) ?x450 L_0) 0.0)) (not (>= (+ (* (- (/ 2.0 3.0)) B) S_4 ?x450) 0.0)) (not (>= (+ ?x2823 ?x2820 ?x450 ?x472) 0.0)) (<= (+ ?x1224 (* 3.0 S_1) ?x1064) 0.0) (not (>= (+ (* (- 3.0) B) ?x2821 ?x1224 ?x1064) 0.0)) (<= (+ (* (- 1.0) S_2) S_0) (- 5.0)) (<= (+ S_3 (* (- 3.0) S_2) (* 2.0 S_0)) 0.0) (<= (+ (* (/ 1.0 4.0) S_4) (* (- 1.0) S_2) (* (/ 3.0 4.0) S_0)) 0.0) (<= (+ (* (- (/ 1.0 3.0)) S_4) (* (/ 1.0 3.0) S_0)) (- 5.0)) (not (>= (+ ?x2823 S_4 ?x1064) 0.0)))))))))))))))))))))))
(check-sat)
